\ Model sudoku19
\ LP format - for model browsing. Use MPS format to capture full model detail.
Minimize
 
Subject To
 R0: C24 = 1
 R1: C52 = 1
 R2: C106 = 1
 R3: C112 = 1
 R4: C122 = 1
 R5: C129 = 1
 R6: C135 = 1
 R7: C215 = 1
 R8: C220 = 1
 R9: C252 = 1
 R10: C292 = 1
 R11: C303 = 1
 R12: C311 = 1
 R13: C379 = 1
 R14: C390 = 1
 R15: C448 = 1
 R16: C461 = 1
 R17: C500 = 1
 R18: C507 = 1
 R19: C537 = 1
 R20: C557 = 1
 R21: C585 = 1
 R22: C596 = 1
 R23: C658 = 1
 R24: C670 = 1
 R25: C0 + C1 + C2 + C3 + C4 + C5 + C6 + C7 + C8 = 1
 R26: C9 + C10 + C11 + C12 + C13 + C14 + C15 + C16 + C17 = 1
 R27: C18 + C19 + C20 + C21 + C22 + C23 + C24 + C25 + C26 = 1
 R28: C27 + C28 + C29 + C30 + C31 + C32 + C33 + C34 + C35 = 1
 R29: C36 + C37 + C38 + C39 + C40 + C41 + C42 + C43 + C44 = 1
 R30: C45 + C46 + C47 + C48 + C49 + C50 + C51 + C52 + C53 = 1
 R31: C54 + C55 + C56 + C57 + C58 + C59 + C60 + C61 + C62 = 1
 R32: C63 + C64 + C65 + C66 + C67 + C68 + C69 + C70 + C71 = 1
 R33: C72 + C73 + C74 + C75 + C76 + C77 + C78 + C79 + C80 = 1
 R34: C81 + C82 + C83 + C84 + C85 + C86 + C87 + C88 + C89 = 1
 R35: C90 + C91 + C92 + C93 + C94 + C95 + C96 + C97 + C98 = 1
 R36: C99 + C100 + C101 + C102 + C103 + C104 + C105 + C106 + C107 = 1
 R37: C108 + C109 + C110 + C111 + C112 + C113 + C114 + C115 + C116 = 1
 R38: C117 + C118 + C119 + C120 + C121 + C122 + C123 + C124 + C125 = 1
 R39: C126 + C127 + C128 + C129 + C130 + C131 + C132 + C133 + C134 = 1
 R40: C135 + C136 + C137 + C138 + C139 + C140 + C141 + C142 + C143 = 1
 R41: C144 + C145 + C146 + C147 + C148 + C149 + C150 + C151 + C152 = 1
 R42: C153 + C154 + C155 + C156 + C157 + C158 + C159 + C160 + C161 = 1
 R43: C162 + C163 + C164 + C165 + C166 + C167 + C168 + C169 + C170 = 1
 R44: C171 + C172 + C173 + C174 + C175 + C176 + C177 + C178 + C179 = 1
 R45: C180 + C181 + C182 + C183 + C184 + C185 + C186 + C187 + C188 = 1
 R46: C189 + C190 + C191 + C192 + C193 + C194 + C195 + C196 + C197 = 1
 R47: C198 + C199 + C200 + C201 + C202 + C203 + C204 + C205 + C206 = 1
 R48: C207 + C208 + C209 + C210 + C211 + C212 + C213 + C214 + C215 = 1
 R49: C216 + C217 + C218 + C219 + C220 + C221 + C222 + C223 + C224 = 1
 R50: C225 + C226 + C227 + C228 + C229 + C230 + C231 + C232 + C233 = 1
 R51: C234 + C235 + C236 + C237 + C238 + C239 + C240 + C241 + C242 = 1
 R52: C243 + C244 + C245 + C246 + C247 + C248 + C249 + C250 + C251 = 1
 R53: C252 + C253 + C254 + C255 + C256 + C257 + C258 + C259 + C260 = 1
 R54: C261 + C262 + C263 + C264 + C265 + C266 + C267 + C268 + C269 = 1
 R55: C270 + C271 + C272 + C273 + C274 + C275 + C276 + C277 + C278 = 1
 R56: C279 + C280 + C281 + C282 + C283 + C284 + C285 + C286 + C287 = 1
 R57: C288 + C289 + C290 + C291 + C292 + C293 + C294 + C295 + C296 = 1
 R58: C297 + C298 + C299 + C300 + C301 + C302 + C303 + C304 + C305 = 1
 R59: C306 + C307 + C308 + C309 + C310 + C311 + C312 + C313 + C314 = 1
 R60: C315 + C316 + C317 + C318 + C319 + C320 + C321 + C322 + C323 = 1
 R61: C324 + C325 + C326 + C327 + C328 + C329 + C330 + C331 + C332 = 1
 R62: C333 + C334 + C335 + C336 + C337 + C338 + C339 + C340 + C341 = 1
 R63: C342 + C343 + C344 + C345 + C346 + C347 + C348 + C349 + C350 = 1
 R64: C351 + C352 + C353 + C354 + C355 + C356 + C357 + C358 + C359 = 1
 R65: C360 + C361 + C362 + C363 + C364 + C365 + C366 + C367 + C368 = 1
 R66: C369 + C370 + C371 + C372 + C373 + C374 + C375 + C376 + C377 = 1
 R67: C378 + C379 + C380 + C381 + C382 + C383 + C384 + C385 + C386 = 1
 R68: C387 + C388 + C389 + C390 + C391 + C392 + C393 + C394 + C395 = 1
 R69: C396 + C397 + C398 + C399 + C400 + C401 + C402 + C403 + C404 = 1
 R70: C405 + C406 + C407 + C408 + C409 + C410 + C411 + C412 + C413 = 1
 R71: C414 + C415 + C416 + C417 + C418 + C419 + C420 + C421 + C422 = 1
 R72: C423 + C424 + C425 + C426 + C427 + C428 + C429 + C430 + C431 = 1
 R73: C432 + C433 + C434 + C435 + C436 + C437 + C438 + C439 + C440 = 1
 R74: C441 + C442 + C443 + C444 + C445 + C446 + C447 + C448 + C449 = 1
 R75: C450 + C451 + C452 + C453 + C454 + C455 + C456 + C457 + C458 = 1
 R76: C459 + C460 + C461 + C462 + C463 + C464 + C465 + C466 + C467 = 1
 R77: C468 + C469 + C470 + C471 + C472 + C473 + C474 + C475 + C476 = 1
 R78: C477 + C478 + C479 + C480 + C481 + C482 + C483 + C484 + C485 = 1
 R79: C486 + C487 + C488 + C489 + C490 + C491 + C492 + C493 + C494 = 1
 R80: C495 + C496 + C497 + C498 + C499 + C500 + C501 + C502 + C503 = 1
 R81: C504 + C505 + C506 + C507 + C508 + C509 + C510 + C511 + C512 = 1
 R82: C513 + C514 + C515 + C516 + C517 + C518 + C519 + C520 + C521 = 1
 R83: C522 + C523 + C524 + C525 + C526 + C527 + C528 + C529 + C530 = 1
 R84: C531 + C532 + C533 + C534 + C535 + C536 + C537 + C538 + C539 = 1
 R85: C540 + C541 + C542 + C543 + C544 + C545 + C546 + C547 + C548 = 1
 R86: C549 + C550 + C551 + C552 + C553 + C554 + C555 + C556 + C557 = 1
 R87: C558 + C559 + C560 + C561 + C562 + C563 + C564 + C565 + C566 = 1
 R88: C567 + C568 + C569 + C570 + C571 + C572 + C573 + C574 + C575 = 1
 R89: C576 + C577 + C578 + C579 + C580 + C581 + C582 + C583 + C584 = 1
 R90: C585 + C586 + C587 + C588 + C589 + C590 + C591 + C592 + C593 = 1
 R91: C594 + C595 + C596 + C597 + C598 + C599 + C600 + C601 + C602 = 1
 R92: C603 + C604 + C605 + C606 + C607 + C608 + C609 + C610 + C611 = 1
 R93: C612 + C613 + C614 + C615 + C616 + C617 + C618 + C619 + C620 = 1
 R94: C621 + C622 + C623 + C624 + C625 + C626 + C627 + C628 + C629 = 1
 R95: C630 + C631 + C632 + C633 + C634 + C635 + C636 + C637 + C638 = 1
 R96: C639 + C640 + C641 + C642 + C643 + C644 + C645 + C646 + C647 = 1
 R97: C648 + C649 + C650 + C651 + C652 + C653 + C654 + C655 + C656 = 1
 R98: C657 + C658 + C659 + C660 + C661 + C662 + C663 + C664 + C665 = 1
 R99: C666 + C667 + C668 + C669 + C670 + C671 + C672 + C673 + C674 = 1
 R100: C675 + C676 + C677 + C678 + C679 + C680 + C681 + C682 + C683 = 1
 R101: C684 + C685 + C686 + C687 + C688 + C689 + C690 + C691 + C692 = 1
 R102: C693 + C694 + C695 + C696 + C697 + C698 + C699 + C700 + C701 = 1
 R103: C702 + C703 + C704 + C705 + C706 + C707 + C708 + C709 + C710 = 1
 R104: C711 + C712 + C713 + C714 + C715 + C716 + C717 + C718 + C719 = 1
 R105: C720 + C721 + C722 + C723 + C724 + C725 + C726 + C727 + C728 = 1
 R106: C0 + C9 + C18 + C27 + C36 + C45 + C54 + C63 + C72 = 1
 R107: C81 + C90 + C99 + C108 + C117 + C126 + C135 + C144 + C153 = 1
 R108: C162 + C171 + C180 + C189 + C198 + C207 + C216 + C225 + C234 = 1
 R109: C243 + C252 + C261 + C270 + C279 + C288 + C297 + C306 + C315 = 1
 R110: C324 + C333 + C342 + C351 + C360 + C369 + C378 + C387 + C396 = 1
 R111: C405 + C414 + C423 + C432 + C441 + C450 + C459 + C468 + C477 = 1
 R112: C486 + C495 + C504 + C513 + C522 + C531 + C540 + C549 + C558 = 1
 R113: C567 + C576 + C585 + C594 + C603 + C612 + C621 + C630 + C639 = 1
 R114: C648 + C657 + C666 + C675 + C684 + C693 + C702 + C711 + C720 = 1
 R115: C1 + C10 + C19 + C28 + C37 + C46 + C55 + C64 + C73 = 1
 R116: C82 + C91 + C100 + C109 + C118 + C127 + C136 + C145 + C154 = 1
 R117: C163 + C172 + C181 + C190 + C199 + C208 + C217 + C226 + C235 = 1
 R118: C244 + C253 + C262 + C271 + C280 + C289 + C298 + C307 + C316 = 1
 R119: C325 + C334 + C343 + C352 + C361 + C370 + C379 + C388 + C397 = 1
 R120: C406 + C415 + C424 + C433 + C442 + C451 + C460 + C469 + C478 = 1
 R121: C487 + C496 + C505 + C514 + C523 + C532 + C541 + C550 + C559 = 1
 R122: C568 + C577 + C586 + C595 + C604 + C613 + C622 + C631 + C640 = 1
 R123: C649 + C658 + C667 + C676 + C685 + C694 + C703 + C712 + C721 = 1
 R124: C2 + C11 + C20 + C29 + C38 + C47 + C56 + C65 + C74 = 1
 R125: C83 + C92 + C101 + C110 + C119 + C128 + C137 + C146 + C155 = 1
 R126: C164 + C173 + C182 + C191 + C200 + C209 + C218 + C227 + C236 = 1
 R127: C245 + C254 + C263 + C272 + C281 + C290 + C299 + C308 + C317 = 1
 R128: C326 + C335 + C344 + C353 + C362 + C371 + C380 + C389 + C398 = 1
 R129: C407 + C416 + C425 + C434 + C443 + C452 + C461 + C470 + C479 = 1
 R130: C488 + C497 + C506 + C515 + C524 + C533 + C542 + C551 + C560 = 1
 R131: C569 + C578 + C587 + C596 + C605 + C614 + C623 + C632 + C641 = 1
 R132: C650 + C659 + C668 + C677 + C686 + C695 + C704 + C713 + C722 = 1
 R133: C3 + C12 + C21 + C30 + C39 + C48 + C57 + C66 + C75 = 1
 R134: C84 + C93 + C102 + C111 + C120 + C129 + C138 + C147 + C156 = 1
 R135: C165 + C174 + C183 + C192 + C201 + C210 + C219 + C228 + C237 = 1
 R136: C246 + C255 + C264 + C273 + C282 + C291 + C300 + C309 + C318 = 1
 R137: C327 + C336 + C345 + C354 + C363 + C372 + C381 + C390 + C399 = 1
 R138: C408 + C417 + C426 + C435 + C444 + C453 + C462 + C471 + C480 = 1
 R139: C489 + C498 + C507 + C516 + C525 + C534 + C543 + C552 + C561 = 1
 R140: C570 + C579 + C588 + C597 + C606 + C615 + C624 + C633 + C642 = 1
 R141: C651 + C660 + C669 + C678 + C687 + C696 + C705 + C714 + C723 = 1
 R142: C4 + C13 + C22 + C31 + C40 + C49 + C58 + C67 + C76 = 1
 R143: C85 + C94 + C103 + C112 + C121 + C130 + C139 + C148 + C157 = 1
 R144: C166 + C175 + C184 + C193 + C202 + C211 + C220 + C229 + C238 = 1
 R145: C247 + C256 + C265 + C274 + C283 + C292 + C301 + C310 + C319 = 1
 R146: C328 + C337 + C346 + C355 + C364 + C373 + C382 + C391 + C400 = 1
 R147: C409 + C418 + C427 + C436 + C445 + C454 + C463 + C472 + C481 = 1
 R148: C490 + C499 + C508 + C517 + C526 + C535 + C544 + C553 + C562 = 1
 R149: C571 + C580 + C589 + C598 + C607 + C616 + C625 + C634 + C643 = 1
 R150: C652 + C661 + C670 + C679 + C688 + C697 + C706 + C715 + C724 = 1
 R151: C5 + C14 + C23 + C32 + C41 + C50 + C59 + C68 + C77 = 1
 R152: C86 + C95 + C104 + C113 + C122 + C131 + C140 + C149 + C158 = 1
 R153: C167 + C176 + C185 + C194 + C203 + C212 + C221 + C230 + C239 = 1
 R154: C248 + C257 + C266 + C275 + C284 + C293 + C302 + C311 + C320 = 1
 R155: C329 + C338 + C347 + C356 + C365 + C374 + C383 + C392 + C401 = 1
 R156: C410 + C419 + C428 + C437 + C446 + C455 + C464 + C473 + C482 = 1
 R157: C491 + C500 + C509 + C518 + C527 + C536 + C545 + C554 + C563 = 1
 R158: C572 + C581 + C590 + C599 + C608 + C617 + C626 + C635 + C644 = 1
 R159: C653 + C662 + C671 + C680 + C689 + C698 + C707 + C716 + C725 = 1
 R160: C6 + C15 + C24 + C33 + C42 + C51 + C60 + C69 + C78 = 1
 R161: C87 + C96 + C105 + C114 + C123 + C132 + C141 + C150 + C159 = 1
 R162: C168 + C177 + C186 + C195 + C204 + C213 + C222 + C231 + C240 = 1
 R163: C249 + C258 + C267 + C276 + C285 + C294 + C303 + C312 + C321 = 1
 R164: C330 + C339 + C348 + C357 + C366 + C375 + C384 + C393 + C402 = 1
 R165: C411 + C420 + C429 + C438 + C447 + C456 + C465 + C474 + C483 = 1
 R166: C492 + C501 + C510 + C519 + C528 + C537 + C546 + C555 + C564 = 1
 R167: C573 + C582 + C591 + C600 + C609 + C618 + C627 + C636 + C645 = 1
 R168: C654 + C663 + C672 + C681 + C690 + C699 + C708 + C717 + C726 = 1
 R169: C7 + C16 + C25 + C34 + C43 + C52 + C61 + C70 + C79 = 1
 R170: C88 + C97 + C106 + C115 + C124 + C133 + C142 + C151 + C160 = 1
 R171: C169 + C178 + C187 + C196 + C205 + C214 + C223 + C232 + C241 = 1
 R172: C250 + C259 + C268 + C277 + C286 + C295 + C304 + C313 + C322 = 1
 R173: C331 + C340 + C349 + C358 + C367 + C376 + C385 + C394 + C403 = 1
 R174: C412 + C421 + C430 + C439 + C448 + C457 + C466 + C475 + C484 = 1
 R175: C493 + C502 + C511 + C520 + C529 + C538 + C547 + C556 + C565 = 1
 R176: C574 + C583 + C592 + C601 + C610 + C619 + C628 + C637 + C646 = 1
 R177: C655 + C664 + C673 + C682 + C691 + C700 + C709 + C718 + C727 = 1
 R178: C8 + C17 + C26 + C35 + C44 + C53 + C62 + C71 + C80 = 1
 R179: C89 + C98 + C107 + C116 + C125 + C134 + C143 + C152 + C161 = 1
 R180: C170 + C179 + C188 + C197 + C206 + C215 + C224 + C233 + C242 = 1
 R181: C251 + C260 + C269 + C278 + C287 + C296 + C305 + C314 + C323 = 1
 R182: C332 + C341 + C350 + C359 + C368 + C377 + C386 + C395 + C404 = 1
 R183: C413 + C422 + C431 + C440 + C449 + C458 + C467 + C476 + C485 = 1
 R184: C494 + C503 + C512 + C521 + C530 + C539 + C548 + C557 + C566 = 1
 R185: C575 + C584 + C593 + C602 + C611 + C620 + C629 + C638 + C647 = 1
 R186: C656 + C665 + C674 + C683 + C692 + C701 + C710 + C719 + C728 = 1
 R187: C0 + C81 + C162 + C243 + C324 + C405 + C486 + C567 + C648 = 1
 R188: C1 + C82 + C163 + C244 + C325 + C406 + C487 + C568 + C649 = 1
 R189: C2 + C83 + C164 + C245 + C326 + C407 + C488 + C569 + C650 = 1
 R190: C3 + C84 + C165 + C246 + C327 + C408 + C489 + C570 + C651 = 1
 R191: C4 + C85 + C166 + C247 + C328 + C409 + C490 + C571 + C652 = 1
 R192: C5 + C86 + C167 + C248 + C329 + C410 + C491 + C572 + C653 = 1
 R193: C6 + C87 + C168 + C249 + C330 + C411 + C492 + C573 + C654 = 1
 R194: C7 + C88 + C169 + C250 + C331 + C412 + C493 + C574 + C655 = 1
 R195: C8 + C89 + C170 + C251 + C332 + C413 + C494 + C575 + C656 = 1
 R196: C9 + C90 + C171 + C252 + C333 + C414 + C495 + C576 + C657 = 1
 R197: C10 + C91 + C172 + C253 + C334 + C415 + C496 + C577 + C658 = 1
 R198: C11 + C92 + C173 + C254 + C335 + C416 + C497 + C578 + C659 = 1
 R199: C12 + C93 + C174 + C255 + C336 + C417 + C498 + C579 + C660 = 1
 R200: C13 + C94 + C175 + C256 + C337 + C418 + C499 + C580 + C661 = 1
 R201: C14 + C95 + C176 + C257 + C338 + C419 + C500 + C581 + C662 = 1
 R202: C15 + C96 + C177 + C258 + C339 + C420 + C501 + C582 + C663 = 1
 R203: C16 + C97 + C178 + C259 + C340 + C421 + C502 + C583 + C664 = 1
 R204: C17 + C98 + C179 + C260 + C341 + C422 + C503 + C584 + C665 = 1
 R205: C18 + C99 + C180 + C261 + C342 + C423 + C504 + C585 + C666 = 1
 R206: C19 + C100 + C181 + C262 + C343 + C424 + C505 + C586 + C667 = 1
 R207: C20 + C101 + C182 + C263 + C344 + C425 + C506 + C587 + C668 = 1
 R208: C21 + C102 + C183 + C264 + C345 + C426 + C507 + C588 + C669 = 1
 R209: C22 + C103 + C184 + C265 + C346 + C427 + C508 + C589 + C670 = 1
 R210: C23 + C104 + C185 + C266 + C347 + C428 + C509 + C590 + C671 = 1
 R211: C24 + C105 + C186 + C267 + C348 + C429 + C510 + C591 + C672 = 1
 R212: C25 + C106 + C187 + C268 + C349 + C430 + C511 + C592 + C673 = 1
 R213: C26 + C107 + C188 + C269 + C350 + C431 + C512 + C593 + C674 = 1
 R214: C27 + C108 + C189 + C270 + C351 + C432 + C513 + C594 + C675 = 1
 R215: C28 + C109 + C190 + C271 + C352 + C433 + C514 + C595 + C676 = 1
 R216: C29 + C110 + C191 + C272 + C353 + C434 + C515 + C596 + C677 = 1
 R217: C30 + C111 + C192 + C273 + C354 + C435 + C516 + C597 + C678 = 1
 R218: C31 + C112 + C193 + C274 + C355 + C436 + C517 + C598 + C679 = 1
 R219: C32 + C113 + C194 + C275 + C356 + C437 + C518 + C599 + C680 = 1
 R220: C33 + C114 + C195 + C276 + C357 + C438 + C519 + C600 + C681 = 1
 R221: C34 + C115 + C196 + C277 + C358 + C439 + C520 + C601 + C682 = 1
 R222: C35 + C116 + C197 + C278 + C359 + C440 + C521 + C602 + C683 = 1
 R223: C36 + C117 + C198 + C279 + C360 + C441 + C522 + C603 + C684 = 1
 R224: C37 + C118 + C199 + C280 + C361 + C442 + C523 + C604 + C685 = 1
 R225: C38 + C119 + C200 + C281 + C362 + C443 + C524 + C605 + C686 = 1
 R226: C39 + C120 + C201 + C282 + C363 + C444 + C525 + C606 + C687 = 1
 R227: C40 + C121 + C202 + C283 + C364 + C445 + C526 + C607 + C688 = 1
 R228: C41 + C122 + C203 + C284 + C365 + C446 + C527 + C608 + C689 = 1
 R229: C42 + C123 + C204 + C285 + C366 + C447 + C528 + C609 + C690 = 1
 R230: C43 + C124 + C205 + C286 + C367 + C448 + C529 + C610 + C691 = 1
 R231: C44 + C125 + C206 + C287 + C368 + C449 + C530 + C611 + C692 = 1
 R232: C45 + C126 + C207 + C288 + C369 + C450 + C531 + C612 + C693 = 1
 R233: C46 + C127 + C208 + C289 + C370 + C451 + C532 + C613 + C694 = 1
 R234: C47 + C128 + C209 + C290 + C371 + C452 + C533 + C614 + C695 = 1
 R235: C48 + C129 + C210 + C291 + C372 + C453 + C534 + C615 + C696 = 1
 R236: C49 + C130 + C211 + C292 + C373 + C454 + C535 + C616 + C697 = 1
 R237: C50 + C131 + C212 + C293 + C374 + C455 + C536 + C617 + C698 = 1
 R238: C51 + C132 + C213 + C294 + C375 + C456 + C537 + C618 + C699 = 1
 R239: C52 + C133 + C214 + C295 + C376 + C457 + C538 + C619 + C700 = 1
 R240: C53 + C134 + C215 + C296 + C377 + C458 + C539 + C620 + C701 = 1
 R241: C54 + C135 + C216 + C297 + C378 + C459 + C540 + C621 + C702 = 1
 R242: C55 + C136 + C217 + C298 + C379 + C460 + C541 + C622 + C703 = 1
 R243: C56 + C137 + C218 + C299 + C380 + C461 + C542 + C623 + C704 = 1
 R244: C57 + C138 + C219 + C300 + C381 + C462 + C543 + C624 + C705 = 1
 R245: C58 + C139 + C220 + C301 + C382 + C463 + C544 + C625 + C706 = 1
 R246: C59 + C140 + C221 + C302 + C383 + C464 + C545 + C626 + C707 = 1
 R247: C60 + C141 + C222 + C303 + C384 + C465 + C546 + C627 + C708 = 1
 R248: C61 + C142 + C223 + C304 + C385 + C466 + C547 + C628 + C709 = 1
 R249: C62 + C143 + C224 + C305 + C386 + C467 + C548 + C629 + C710 = 1
 R250: C63 + C144 + C225 + C306 + C387 + C468 + C549 + C630 + C711 = 1
 R251: C64 + C145 + C226 + C307 + C388 + C469 + C550 + C631 + C712 = 1
 R252: C65 + C146 + C227 + C308 + C389 + C470 + C551 + C632 + C713 = 1
 R253: C66 + C147 + C228 + C309 + C390 + C471 + C552 + C633 + C714 = 1
 R254: C67 + C148 + C229 + C310 + C391 + C472 + C553 + C634 + C715 = 1
 R255: C68 + C149 + C230 + C311 + C392 + C473 + C554 + C635 + C716 = 1
 R256: C69 + C150 + C231 + C312 + C393 + C474 + C555 + C636 + C717 = 1
 R257: C70 + C151 + C232 + C313 + C394 + C475 + C556 + C637 + C718 = 1
 R258: C71 + C152 + C233 + C314 + C395 + C476 + C557 + C638 + C719 = 1
 R259: C72 + C153 + C234 + C315 + C396 + C477 + C558 + C639 + C720 = 1
 R260: C73 + C154 + C235 + C316 + C397 + C478 + C559 + C640 + C721 = 1
 R261: C74 + C155 + C236 + C317 + C398 + C479 + C560 + C641 + C722 = 1
 R262: C75 + C156 + C237 + C318 + C399 + C480 + C561 + C642 + C723 = 1
 R263: C76 + C157 + C238 + C319 + C400 + C481 + C562 + C643 + C724 = 1
 R264: C77 + C158 + C239 + C320 + C401 + C482 + C563 + C644 + C725 = 1
 R265: C78 + C159 + C240 + C321 + C402 + C483 + C564 + C645 + C726 = 1
 R266: C79 + C160 + C241 + C322 + C403 + C484 + C565 + C646 + C727 = 1
 R267: C80 + C161 + C242 + C323 + C404 + C485 + C566 + C647 + C728 = 1
 R268: C0 + C9 + C18 + C81 + C90 + C99 + C162 + C171 + C180 = 1
 R269: C1 + C10 + C19 + C82 + C91 + C100 + C163 + C172 + C181 = 1
 R270: C2 + C11 + C20 + C83 + C92 + C101 + C164 + C173 + C182 = 1
 R271: C3 + C12 + C21 + C84 + C93 + C102 + C165 + C174 + C183 = 1
 R272: C4 + C13 + C22 + C85 + C94 + C103 + C166 + C175 + C184 = 1
 R273: C5 + C14 + C23 + C86 + C95 + C104 + C167 + C176 + C185 = 1
 R274: C6 + C15 + C24 + C87 + C96 + C105 + C168 + C177 + C186 = 1
 R275: C7 + C16 + C25 + C88 + C97 + C106 + C169 + C178 + C187 = 1
 R276: C8 + C17 + C26 + C89 + C98 + C107 + C170 + C179 + C188 = 1
 R277: C27 + C36 + C45 + C108 + C117 + C126 + C189 + C198 + C207 = 1
 R278: C28 + C37 + C46 + C109 + C118 + C127 + C190 + C199 + C208 = 1
 R279: C29 + C38 + C47 + C110 + C119 + C128 + C191 + C200 + C209 = 1
 R280: C30 + C39 + C48 + C111 + C120 + C129 + C192 + C201 + C210 = 1
 R281: C31 + C40 + C49 + C112 + C121 + C130 + C193 + C202 + C211 = 1
 R282: C32 + C41 + C50 + C113 + C122 + C131 + C194 + C203 + C212 = 1
 R283: C33 + C42 + C51 + C114 + C123 + C132 + C195 + C204 + C213 = 1
 R284: C34 + C43 + C52 + C115 + C124 + C133 + C196 + C205 + C214 = 1
 R285: C35 + C44 + C53 + C116 + C125 + C134 + C197 + C206 + C215 = 1
 R286: C54 + C63 + C72 + C135 + C144 + C153 + C216 + C225 + C234 = 1
 R287: C55 + C64 + C73 + C136 + C145 + C154 + C217 + C226 + C235 = 1
 R288: C56 + C65 + C74 + C137 + C146 + C155 + C218 + C227 + C236 = 1
 R289: C57 + C66 + C75 + C138 + C147 + C156 + C219 + C228 + C237 = 1
 R290: C58 + C67 + C76 + C139 + C148 + C157 + C220 + C229 + C238 = 1
 R291: C59 + C68 + C77 + C140 + C149 + C158 + C221 + C230 + C239 = 1
 R292: C60 + C69 + C78 + C141 + C150 + C159 + C222 + C231 + C240 = 1
 R293: C61 + C70 + C79 + C142 + C151 + C160 + C223 + C232 + C241 = 1
 R294: C62 + C71 + C80 + C143 + C152 + C161 + C224 + C233 + C242 = 1
 R295: C243 + C252 + C261 + C324 + C333 + C342 + C405 + C414 + C423 = 1
 R296: C244 + C253 + C262 + C325 + C334 + C343 + C406 + C415 + C424 = 1
 R297: C245 + C254 + C263 + C326 + C335 + C344 + C407 + C416 + C425 = 1
 R298: C246 + C255 + C264 + C327 + C336 + C345 + C408 + C417 + C426 = 1
 R299: C247 + C256 + C265 + C328 + C337 + C346 + C409 + C418 + C427 = 1
 R300: C248 + C257 + C266 + C329 + C338 + C347 + C410 + C419 + C428 = 1
 R301: C249 + C258 + C267 + C330 + C339 + C348 + C411 + C420 + C429 = 1
 R302: C250 + C259 + C268 + C331 + C340 + C349 + C412 + C421 + C430 = 1
 R303: C251 + C260 + C269 + C332 + C341 + C350 + C413 + C422 + C431 = 1
 R304: C270 + C279 + C288 + C351 + C360 + C369 + C432 + C441 + C450 = 1
 R305: C271 + C280 + C289 + C352 + C361 + C370 + C433 + C442 + C451 = 1
 R306: C272 + C281 + C290 + C353 + C362 + C371 + C434 + C443 + C452 = 1
 R307: C273 + C282 + C291 + C354 + C363 + C372 + C435 + C444 + C453 = 1
 R308: C274 + C283 + C292 + C355 + C364 + C373 + C436 + C445 + C454 = 1
 R309: C275 + C284 + C293 + C356 + C365 + C374 + C437 + C446 + C455 = 1
 R310: C276 + C285 + C294 + C357 + C366 + C375 + C438 + C447 + C456 = 1
 R311: C277 + C286 + C295 + C358 + C367 + C376 + C439 + C448 + C457 = 1
 R312: C278 + C287 + C296 + C359 + C368 + C377 + C440 + C449 + C458 = 1
 R313: C297 + C306 + C315 + C378 + C387 + C396 + C459 + C468 + C477 = 1
 R314: C298 + C307 + C316 + C379 + C388 + C397 + C460 + C469 + C478 = 1
 R315: C299 + C308 + C317 + C380 + C389 + C398 + C461 + C470 + C479 = 1
 R316: C300 + C309 + C318 + C381 + C390 + C399 + C462 + C471 + C480 = 1
 R317: C301 + C310 + C319 + C382 + C391 + C400 + C463 + C472 + C481 = 1
 R318: C302 + C311 + C320 + C383 + C392 + C401 + C464 + C473 + C482 = 1
 R319: C303 + C312 + C321 + C384 + C393 + C402 + C465 + C474 + C483 = 1
 R320: C304 + C313 + C322 + C385 + C394 + C403 + C466 + C475 + C484 = 1
 R321: C305 + C314 + C323 + C386 + C395 + C404 + C467 + C476 + C485 = 1
 R322: C486 + C495 + C504 + C567 + C576 + C585 + C648 + C657 + C666 = 1
 R323: C487 + C496 + C505 + C568 + C577 + C586 + C649 + C658 + C667 = 1
 R324: C488 + C497 + C506 + C569 + C578 + C587 + C650 + C659 + C668 = 1
 R325: C489 + C498 + C507 + C570 + C579 + C588 + C651 + C660 + C669 = 1
 R326: C490 + C499 + C508 + C571 + C580 + C589 + C652 + C661 + C670 = 1
 R327: C491 + C500 + C509 + C572 + C581 + C590 + C653 + C662 + C671 = 1
 R328: C492 + C501 + C510 + C573 + C582 + C591 + C654 + C663 + C672 = 1
 R329: C493 + C502 + C511 + C574 + C583 + C592 + C655 + C664 + C673 = 1
 R330: C494 + C503 + C512 + C575 + C584 + C593 + C656 + C665 + C674 = 1
 R331: C513 + C522 + C531 + C594 + C603 + C612 + C675 + C684 + C693 = 1
 R332: C514 + C523 + C532 + C595 + C604 + C613 + C676 + C685 + C694 = 1
 R333: C515 + C524 + C533 + C596 + C605 + C614 + C677 + C686 + C695 = 1
 R334: C516 + C525 + C534 + C597 + C606 + C615 + C678 + C687 + C696 = 1
 R335: C517 + C526 + C535 + C598 + C607 + C616 + C679 + C688 + C697 = 1
 R336: C518 + C527 + C536 + C599 + C608 + C617 + C680 + C689 + C698 = 1
 R337: C519 + C528 + C537 + C600 + C609 + C618 + C681 + C690 + C699 = 1
 R338: C520 + C529 + C538 + C601 + C610 + C619 + C682 + C691 + C700 = 1
 R339: C521 + C530 + C539 + C602 + C611 + C620 + C683 + C692 + C701 = 1
 R340: C540 + C549 + C558 + C621 + C630 + C639 + C702 + C711 + C720 = 1
 R341: C541 + C550 + C559 + C622 + C631 + C640 + C703 + C712 + C721 = 1
 R342: C542 + C551 + C560 + C623 + C632 + C641 + C704 + C713 + C722 = 1
 R343: C543 + C552 + C561 + C624 + C633 + C642 + C705 + C714 + C723 = 1
 R344: C544 + C553 + C562 + C625 + C634 + C643 + C706 + C715 + C724 = 1
 R345: C545 + C554 + C563 + C626 + C635 + C644 + C707 + C716 + C725 = 1
 R346: C546 + C555 + C564 + C627 + C636 + C645 + C708 + C717 + C726 = 1
 R347: C547 + C556 + C565 + C628 + C637 + C646 + C709 + C718 + C727 = 1
 R348: C548 + C557 + C566 + C629 + C638 + C647 + C710 + C719 + C728 = 1
Bounds
Binaries
 C0 C1 C2 C3 C4 C5 C6 C7 C8 C9 C10 C11 C12 C13 C14 C15 C16 C17 C18 C19 C20
 C21 C22 C23 C24 C25 C26 C27 C28 C29 C30 C31 C32 C33 C34 C35 C36 C37 C38
 C39 C40 C41 C42 C43 C44 C45 C46 C47 C48 C49 C50 C51 C52 C53 C54 C55 C56
 C57 C58 C59 C60 C61 C62 C63 C64 C65 C66 C67 C68 C69 C70 C71 C72 C73 C74
 C75 C76 C77 C78 C79 C80 C81 C82 C83 C84 C85 C86 C87 C88 C89 C90 C91 C92
 C93 C94 C95 C96 C97 C98 C99 C100 C101 C102 C103 C104 C105 C106 C107 C108
 C109 C110 C111 C112 C113 C114 C115 C116 C117 C118 C119 C120 C121 C122 C123
 C124 C125 C126 C127 C128 C129 C130 C131 C132 C133 C134 C135 C136 C137 C138
 C139 C140 C141 C142 C143 C144 C145 C146 C147 C148 C149 C150 C151 C152 C153
 C154 C155 C156 C157 C158 C159 C160 C161 C162 C163 C164 C165 C166 C167 C168
 C169 C170 C171 C172 C173 C174 C175 C176 C177 C178 C179 C180 C181 C182 C183
 C184 C185 C186 C187 C188 C189 C190 C191 C192 C193 C194 C195 C196 C197 C198
 C199 C200 C201 C202 C203 C204 C205 C206 C207 C208 C209 C210 C211 C212 C213
 C214 C215 C216 C217 C218 C219 C220 C221 C222 C223 C224 C225 C226 C227 C228
 C229 C230 C231 C232 C233 C234 C235 C236 C237 C238 C239 C240 C241 C242 C243
 C244 C245 C246 C247 C248 C249 C250 C251 C252 C253 C254 C255 C256 C257 C258
 C259 C260 C261 C262 C263 C264 C265 C266 C267 C268 C269 C270 C271 C272 C273
 C274 C275 C276 C277 C278 C279 C280 C281 C282 C283 C284 C285 C286 C287 C288
 C289 C290 C291 C292 C293 C294 C295 C296 C297 C298 C299 C300 C301 C302 C303
 C304 C305 C306 C307 C308 C309 C310 C311 C312 C313 C314 C315 C316 C317 C318
 C319 C320 C321 C322 C323 C324 C325 C326 C327 C328 C329 C330 C331 C332 C333
 C334 C335 C336 C337 C338 C339 C340 C341 C342 C343 C344 C345 C346 C347 C348
 C349 C350 C351 C352 C353 C354 C355 C356 C357 C358 C359 C360 C361 C362 C363
 C364 C365 C366 C367 C368 C369 C370 C371 C372 C373 C374 C375 C376 C377 C378
 C379 C380 C381 C382 C383 C384 C385 C386 C387 C388 C389 C390 C391 C392 C393
 C394 C395 C396 C397 C398 C399 C400 C401 C402 C403 C404 C405 C406 C407 C408
 C409 C410 C411 C412 C413 C414 C415 C416 C417 C418 C419 C420 C421 C422 C423
 C424 C425 C426 C427 C428 C429 C430 C431 C432 C433 C434 C435 C436 C437 C438
 C439 C440 C441 C442 C443 C444 C445 C446 C447 C448 C449 C450 C451 C452 C453
 C454 C455 C456 C457 C458 C459 C460 C461 C462 C463 C464 C465 C466 C467 C468
 C469 C470 C471 C472 C473 C474 C475 C476 C477 C478 C479 C480 C481 C482 C483
 C484 C485 C486 C487 C488 C489 C490 C491 C492 C493 C494 C495 C496 C497 C498
 C499 C500 C501 C502 C503 C504 C505 C506 C507 C508 C509 C510 C511 C512 C513
 C514 C515 C516 C517 C518 C519 C520 C521 C522 C523 C524 C525 C526 C527 C528
 C529 C530 C531 C532 C533 C534 C535 C536 C537 C538 C539 C540 C541 C542 C543
 C544 C545 C546 C547 C548 C549 C550 C551 C552 C553 C554 C555 C556 C557 C558
 C559 C560 C561 C562 C563 C564 C565 C566 C567 C568 C569 C570 C571 C572 C573
 C574 C575 C576 C577 C578 C579 C580 C581 C582 C583 C584 C585 C586 C587 C588
 C589 C590 C591 C592 C593 C594 C595 C596 C597 C598 C599 C600 C601 C602 C603
 C604 C605 C606 C607 C608 C609 C610 C611 C612 C613 C614 C615 C616 C617 C618
 C619 C620 C621 C622 C623 C624 C625 C626 C627 C628 C629 C630 C631 C632 C633
 C634 C635 C636 C637 C638 C639 C640 C641 C642 C643 C644 C645 C646 C647 C648
 C649 C650 C651 C652 C653 C654 C655 C656 C657 C658 C659 C660 C661 C662 C663
 C664 C665 C666 C667 C668 C669 C670 C671 C672 C673 C674 C675 C676 C677 C678
 C679 C680 C681 C682 C683 C684 C685 C686 C687 C688 C689 C690 C691 C692 C693
 C694 C695 C696 C697 C698 C699 C700 C701 C702 C703 C704 C705 C706 C707 C708
 C709 C710 C711 C712 C713 C714 C715 C716 C717 C718 C719 C720 C721 C722 C723
 C724 C725 C726 C727 C728
End
